(set-logic HORN)
(declare-fun |Trans| ( Int Int Int Int Int Int Int Int Int ) Bool)

(assert
  (forall (( LineNow Int ) ( A Int ) ( B Int ) ( C Int ) ( D Int ) ( E Int ) ( F Int ) ( G Int ) ( H Int ))
    (=>
      (and
         ; (or (= A 0) (= A 1)) ; flip 1
         (= A 0)  ; flip 1
         (= B 0)
         (= C 0)
         (= D 0)
         (= E 0)
         (= F 0)
         (= G 0)
         (= H 0)
         (= LineNow 1)
      )
      (Trans LineNow A B C D E F G H)
    )
  )
)

(assert
  (forall 
    ( ( A  Int ) ( B  Int ) ( CC  Int ) ( C  Int ) ( D  Int ) ( E  Int ) ( F  Int ) ( G  Int ) ( H  Int )
      ( AA Int ) ( BB Int ) ( CCC Int ) ( CC Int ) ( DD Int ) ( EE Int ) ( FF Int ) ( GG Int ) ( HH Int )
      ( LineNow Int ) ( LineNext Int )
    )
    (=>
      (and
        (Trans LineNow A B C D E F G H)

        (or
          (and 
            (= LineNow 1) 
            (= AA A)
            (= BB 99) ; set b 99
            (= CC C)
            (= DD D)
            (= EE E)
            (= FF F)
            (= GG G)
            (= HH H)
            (= LineNext (+ LineNow 1))
          )
          (and 
            (= LineNow 2) 
            (= AA A)
            (= BB B)
            (= CC B) ; set c b
            (= DD D)
            (= EE E)
            (= FF F)
            (= GG G)
            (= HH H)
            (= LineNext (+ LineNow 1))
          )
          (and 
            (= LineNow 3) 
            (= AA A)
            (= BB B)
            (= CC C)
            (= DD D)
            (= EE E)
            (= FF F)
            (= GG G)
            (= HH H)
            (= LineNext (ite (= A 0) (+ LineNow 1) (+ LineNow 2))) ; jnz a 2
          )
          (and 
            (= LineNow 4)
            (= AA A)
            (= BB B)
            (= CC C)
            (= DD D)
            (= EE E)
            (= FF F)
            (= GG G)
            (= HH H)
            (= LineNext (+ LineNow 5)) ; jnz 1 5
          )
          (and 
            (= LineNow 5) 
            (= AA A)
            (= BB (* B 100)) ; mul b 100
            (= CC C)
            (= DD D)
            (= EE E)
            (= FF F)
            (= GG G)
            (= HH H)
            (= LineNext (+ LineNow 1))
          )
          (and 
            (= LineNow 6) 
            (= AA A)
            (= BB (+ B 100000)) ; sub b -100000
            (= CC C)
            (= DD D)
            (= EE E)
            (= FF F)
            (= GG G)
            (= HH H)
            (= LineNext (+ LineNow 1))
          )
          (and 
            (= LineNow 7) 
            (= AA A)
            (= BB B)
            (= CC B) ; set c b
            (= DD D)
            (= EE E)
            (= FF F)
            (= GG G)
            (= HH H)
            (= LineNext (+ LineNow 1))
          )
          (and 
            (= LineNow 8) 
            (= AA A)
            (= BB B)
            (= CC (+ C 17000)) ; sub c -17000
            (= DD D)
            (= EE E)
            (= FF F)
            (= GG G)
            (= HH H)
            (= LineNext (+ LineNow 1))
          )
          (and 
            (= LineNow 9) 
            (= AA A)
            (= BB B)
            (= CC C)
            (= DD D)
            (= EE E)
            (= FF 1) ; set f 1
            (= GG G)
            (= HH H)
            (= LineNext (+ LineNow 1))
          )
          (and 
            (= LineNow 10) 
            (= AA A)
            (= BB B)
            (= CC C)
            (= DD 2) ; set d 2
            (= EE E)
            (= FF F)
            (= GG G)
            (= HH H)
            (= LineNext (+ LineNow 1))
          )
          (and 
            (= LineNow 11) 
            (= AA A)
            (= BB B)
            (= CC C)
            (= DD D)
            (= EE 2) ; set e 2
            (= FF F)
            (= GG G)
            (= HH H)
            (= LineNext (+ LineNow 1))
          )
          (and 
            (= LineNow 12) 
            (= AA A)
            (= BB B)
            (= CC C)
            (= DD D)
            (= EE E)
            (= FF F)
            (= GG D) ; set g d
            (= HH H)
            (= LineNext (+ LineNow 1))
          )
          (and 
            (= LineNow 13) 
            (= AA A)
            (= BB B)
            (= CC C)
            (= DD D)
            (= EE E)
            (= FF F)
            (= GG (* G E)) ; mul g e
            (= HH H)
            (= LineNext (+ LineNow 1))
          )
          (and 
            (= LineNow 14) 
            (= AA A)
            (= BB B)
            (= CC C)
            (= DD D)
            (= EE E)
            (= FF F)
            (= GG (- G B)) ; sub g b
            (= HH H)
            (= LineNext (+ LineNow 1))
          )
          (and 
            (= LineNow 15) 
            (= AA A)
            (= BB B)
            (= CC C)
            (= DD D)
            (= EE E)
            (= FF F)
            (= GG G)
            (= HH H)
            (= LineNext (ite (= G 0) (+ LineNow 1) (+ LineNow 2))) ; jnz g 2
          )
          (and 
            (= LineNow 16) 
            (= AA A)
            (= BB B)
            (= CC C)
            (= DD D)
            (= EE E)
            (= FF 0) ; set f 0
            (= GG G)
            (= HH H)
            (= LineNext (+ LineNow 1))
          )
          (and 
            (= LineNow 17) 
            (= AA A)
            (= BB B)
            (= CC C)
            (= DD D)
            (= EE (+ E 1)) ; sub e -1
            (= FF F)
            (= GG G)
            (= HH H)
            (= LineNext (+ LineNow 1))
          )
          (and 
            (= LineNow 18) 
            (= AA A)
            (= BB B)
            (= CC C)
            (= DD D)
            (= EE E)
            (= FF F)
            (= GG E) ; set g e
            (= HH H)
            (= LineNext (+ LineNow 1))
          )
          (and 
            (= LineNow 19) 
            (= AA A)
            (= BB B)
            (= CC C)
            (= DD D)
            (= EE E)
            (= FF F)
            (= GG (- G B)) ; sub g b
            (= HH H)
            (= LineNext (+ LineNow 1))
          )
          (and 
            (= LineNow 20) 
            (= AA A)
            (= BB B)
            (= CC C)
            (= DD D)
            (= EE E)
            (= FF F)
            (= GG G)
            (= HH H)
            (= LineNext (ite (= G 0) (+ LineNow 1) (- LineNow 8))) ; jnz g -8
          )
          (and 
            (= LineNow 21) 
            (= AA A)
            (= BB B)
            (= CC C)
            (= DD (+ D 1)) ; sub d -1
            (= EE E)
            (= FF F)
            (= GG G)
            (= HH H)
            (= LineNext (+ LineNow 1))
          )
          (and 
            (= LineNow 22) 
            (= AA A)
            (= BB B)
            (= CC C)
            (= DD D)
            (= EE E)
            (= FF F)
            (= GG D) ; set g d
            (= HH H)
            (= LineNext (+ LineNow 1))
          )
          (and 
            (= LineNow 23) 
            (= AA A)
            (= BB B)
            (= CC C)
            (= DD D)
            (= EE E)
            (= FF F)
            (= GG (- G B)) ; sub g b
            (= HH H)
            (= LineNext (+ LineNow 1))
          )
          (and 
            (= LineNow 24) 
            (= AA A)
            (= BB B)
            (= CC C)
            (= DD D)
            (= EE E)
            (= FF F)
            (= GG G)
            (= HH H)
            (= LineNext (ite (= G 0) (+ LineNow 1) (- LineNow 13))) ; jnz g -13
          )
          (and 
            (= LineNow 25) 
            (= AA A)
            (= BB B)
            (= CC C)
            (= DD D)
            (= EE E)
            (= FF F)
            (= GG G)
            (= HH H)
            (= LineNext (ite (= F 0) (+ LineNow 1) (+ LineNow 2))) ; jnz f 2
          )
          (and 
            (= LineNow 26) 
            (= AA A)
            (= BB B)
            (= CC C)
            (= DD D)
            (= EE E)
            (= FF F)
            (= GG G)
            (= HH (+ H 1)) ; sub h -1
            (= LineNext (+ LineNow 1))
          )
          (and 
            (= LineNow 27) 
            (= AA A)
            (= BB B)
            (= CC C)
            (= DD D)
            (= EE E)
            (= FF F)
            (= GG B) ; set g b
            (= HH H)
            (= LineNext (+ LineNow 1))
          )
          (and 
            (= LineNow 28) 
            (= AA A)
            (= BB B)
            (= CC C)
            (= DD D)
            (= EE E)
            (= FF F)
            (= GG (- G C)) ; sub g c
            (= HH H)
            (= LineNext (+ LineNow 1))
          )
          (and 
            (= LineNow 29) 
            (= AA A)
            (= BB B)
            (= CC C)
            (= DD D)
            (= EE E)
            (= FF F)
            (= GG G)
            (= HH H)
            (= LineNext (ite (= G 0) (+ LineNow 1) (+ LineNow 2))) ; jnz g 2
          )
          (and 
            (= LineNow 30) 
            (= AA A)
            (= BB B)
            (= CC C)
            (= DD D)
            (= EE E)
            (= FF F)
            (= GG G)
            (= HH H)
            (= LineNext (+ LineNow 3)) ; jnz 1 3
          )
          (and 
            (= LineNow 31) 
            (= AA A)
            (= BB (+ B 17)) ; sub b -17
            (= CC C)
            (= DD D)
            (= EE E)
            (= FF F)
            (= GG G)
            (= HH H)
            (= LineNext (+ LineNow 1))
          )
          (and 
            (= LineNow 32) 
            (= AA A)
            (= BB B)
            (= CC C)
            (= DD D)
            (= EE E)
            (= FF F)
            (= GG G)
            (= HH H)
            (= LineNext (- LineNow 23)) ; jnz 1 -23
          )         
        )
      )
      (Trans LineNext AA BB CC DD EE FF GG HH)
    )
  )
)

(assert
  (forall 
    ( ( A  Int ) ( B  Int ) ( CC  Int ) ( C  Int ) ( D  Int ) ( E  Int ) ( F  Int ) ( G  Int ) ( H  Int )
      ( LineNow Int )
    )
    (=>
      (and
        (Trans LineNow A B C D E F G H)
        (= LineNow 33)
      )
      false
    )
  )
)

(check-sat)
(exit)
